702,657
22,11
142,120
298,377
941,949
179,204
853,907
716,786
786,746
43,79
131,176
103,37
79,159
708,625
627,619
545,632
129,69
384,392
709,736
725,750
566,481
291,378
354,371
195,137
700,668
286,363
436,457
21,56
506,565
277,351
666,764
14,24
964,1042
581,663
251,239
633,580
473,513
238,259
260,273
977,1040
316,409
122,122
692,774
175,210
343,434
730,637
443,390
105,100
859,890
422,463
985,992
721,653
657,607
705,709
761,846
268,357
458,415
492,402
325,313
981,1068
929,915
371,316
968,1011
265,210
546,530
991,1022
829,887
731,727
426,488
781,864
917,821
455,427
178,115
643,665
699,797

1972
2130
1830
1522
2014
1995
1549
2250
1857
